
Starting CP-SAT solver v9.15.6755
Parameters: random_seed: 2026073632 max_time_in_seconds: 6939.999999432 log_search_progress: true cp_model_presolve: true linearization_level: 2 num_search_workers: 4 cp_model_probing_level: 2 symmetry_level: 2

Initial satisfaction model '': (model_fingerprint: 0x692bcf1e27bcfc85)
#Variables: 724 (598 primary variables)
  - 724 Booleans in [0,1]
#kBoolAnd: 110 (#enforced: 110) (#literals: 330)
#kBoolOr: 110 (#enforced: 110) (#literals: 220)
#kExactlyOne: 87 (#literals: 261)
#kLinear1: 42 (#enforced: 6)
#kLinear2: 336 (#enforced: 336) (#complex_domain: 110)
#kLinear3: 1'600 (#enforced: 6)
#kLinearN: 1'132 (#enforced: 243) (#terms: 9'111)

Starting presolve at 0.00s
  6.65e-04s  0.00e+00d  [DetectDominanceRelations] 
  8.74e-03s  0.00e+00d  [PresolveToFixPoint] #num_loops=3 #num_dual_strengthening=1 
  4.24e-05s  0.00e+00d  [ExtractEncodingFromLinear] #potential_supersets=88 
  3.09e-04s  0.00e+00d  [DetectDuplicateColumns] 
  1.09e-04s  0.00e+00d  [DetectDuplicateConstraints] #duplicates=14 
[Symmetry] Graph for symmetry has 4'813 nodes and 15'284 arcs.
[Symmetry] Symmetry computation done. time: 0.0012412 dtime: 0.00178884
[SAT presolve] num removable Booleans: 220 / 606
[SAT presolve] num trivial clauses: 0
[SAT presolve] [0s] clauses:2'663 literals:7'280 vars:500 one_side_vars:60 simple_definition:1 singleton_clauses:0
[SAT presolve] [0.000208832s] clauses:2'662 literals:7'273 vars:500 one_side_vars:60 simple_definition:1 singleton_clauses:0
[SAT presolve] [0.00052731s] clauses:2'418 literals:6'920 vars:387 one_side_vars:60 simple_definition:6 singleton_clauses:0
  1.18e-04s  0.00e+00d  [DetectDuplicateConstraintsWithDifferentEnforcements] 
  5.76e-03s  3.10e-03d  [Probe] #probed=1'256 #fixed_bools=10 #equiv=9 #new_binary_clauses=734 
  6.00e-04s  5.17e-04d  [MaxClique] Merged 636 constraints with 1'416 literals into 569 constraints with 1'304 literals
  8.61e-04s  0.00e+00d  [DetectDominanceRelations] 
  3.13e-03s  0.00e+00d  [PresolveToFixPoint] #num_loops=1 #num_dual_strengthening=1 
  1.16e-03s  0.00e+00d  [ProcessAtMostOneAndLinear] 
  1.09e-04s  0.00e+00d  [DetectDuplicateConstraints] #duplicates=4 
  9.01e-05s  0.00e+00d  [DetectDuplicateConstraintsWithDifferentEnforcements] 
  1.18e-03s  6.58e-05d  [DetectDominatedLinearConstraints] #relevant_constraints=819 #num_inclusions=350 #num_redundant=6 
  1.27e-04s  0.00e+00d  [DetectDifferentVariables] 
  8.62e-04s  9.05e-05d  [ProcessSetPPC] #relevant_constraints=3'157 #num_inclusions=284 
  3.17e-04s  3.53e-05d  [TransformClausesToExactlyOne] #num_amos=580 #num_clauses=1'784 #num_transformed=2 #num_checked=1'784 
  4.16e-05s  0.00e+00d  [DetectEncodedComplexDomains] 
  3.67e-05s  0.00e+00d  [FindAlmostIdenticalLinearConstraints] 
  9.13e-04s  1.38e-03d  [FindBigAtMostOneAndLinearOverlap] 
  1.43e-03s  1.20e-03d  [FindBigVerticalLinearOverlap] #blocks=2 #saved_nz=62 
  4.37e-04s  6.70e-04d  [FindBigHorizontalLinearOverlap] #linears=450 
  3.36e-04s  2.79e-05d  [MergeClauses] #num_collisions=10 #num_merges=10 #num_saved_literals=26 
  8.49e-04s  0.00e+00d  [DetectDominanceRelations] 
  4.40e-03s  0.00e+00d  [PresolveToFixPoint] #num_loops=2 #num_dual_strengthening=1 
  8.27e-04s  0.00e+00d  [DetectDominanceRelations] 
  3.04e-03s  0.00e+00d  [PresolveToFixPoint] #num_loops=1 #num_dual_strengthening=1 
  2.15e-04s  0.00e+00d  [DetectDuplicateColumns] 
  1.07e-04s  0.00e+00d  [DetectDuplicateConstraints] 
[Symmetry] Graph for symmetry has 4'465 nodes and 13'900 arcs.
[Symmetry] Symmetry computation done. time: 0.000983376 dtime: 0.00137472
[SAT presolve] num removable Booleans: 104 / 474
[SAT presolve] num trivial clauses: 0
[SAT presolve] [0s] clauses:2'313 literals:6'648 vars:447 one_side_vars:130 simple_definition:23 singleton_clauses:0
[SAT presolve] [0.000226455s] clauses:2'313 literals:6'502 vars:447 one_side_vars:137 simple_definition:83 singleton_clauses:0
[SAT presolve] [0.000379122s] clauses:2'107 literals:6'044 vars:438 one_side_vars:178 simple_definition:54 singleton_clauses:0
  1.50e-04s  0.00e+00d  [DetectDuplicateConstraintsWithDifferentEnforcements] #without_enforcements=4 
  5.54e-03s  1.86e-03d  [Probe] #probed=1'246 #new_binary_clauses=475 
  3.86e-04s  2.53e-04d  [MaxClique] Merged 462 constraints with 1'024 literals into 451 constraints with 1'022 literals
  8.11e-04s  0.00e+00d  [DetectDominanceRelations] 
  2.99e-03s  0.00e+00d  [PresolveToFixPoint] #num_loops=1 #num_dual_strengthening=1 
  1.09e-03s  0.00e+00d  [ProcessAtMostOneAndLinear] 
  1.01e-04s  0.00e+00d  [DetectDuplicateConstraints] 
  9.59e-05s  0.00e+00d  [DetectDuplicateConstraintsWithDifferentEnforcements] 
  3.01e-03s  8.78e-05d  [DetectDominatedLinearConstraints] #relevant_constraints=816 #num_inclusions=437 
  1.21e-04s  0.00e+00d  [DetectDifferentVariables] 
  7.29e-04s  7.80e-05d  [ProcessSetPPC] #relevant_constraints=2'999 #num_inclusions=114 
  2.76e-04s  3.21e-05d  [TransformClausesToExactlyOne] #num_amos=451 #num_clauses=1'686 #num_checked=1'686 
  4.78e-05s  0.00e+00d  [DetectEncodedComplexDomains] 
  4.36e-05s  1.00e-07d  [FindAlmostIdenticalLinearConstraints] #num_tested_pairs=1 
  8.77e-04s  1.28e-03d  [FindBigAtMostOneAndLinearOverlap] 
  1.40e-03s  1.13e-03d  [FindBigVerticalLinearOverlap] #blocks=4 #saved_nz=301 
  3.71e-04s  6.36e-04d  [FindBigHorizontalLinearOverlap] #linears=451 
  3.19e-04s  2.59e-05d  [MergeClauses] #num_collisions=71 #num_merges=71 #num_saved_literals=184 
  8.05e-04s  0.00e+00d  [DetectDominanceRelations] 
  3.03e-03s  0.00e+00d  [PresolveToFixPoint] #num_loops=2 #num_dual_strengthening=1 
  7.88e-04s  0.00e+00d  [DetectDominanceRelations] 
  2.92e-03s  0.00e+00d  [PresolveToFixPoint] #num_loops=1 #num_dual_strengthening=1 
  1.78e-04s  0.00e+00d  [DetectDuplicateColumns] 
  1.07e-04s  0.00e+00d  [DetectDuplicateConstraints] 
[Symmetry] Graph for symmetry has 4'214 nodes and 12'673 arcs.
[Symmetry] Symmetry computation done. time: 0.000914808 dtime: 0.00126707
[SAT presolve] num removable Booleans: 95 / 465
[SAT presolve] num trivial clauses: 0
[SAT presolve] [0s] clauses:2'084 literals:5'982 vars:438 one_side_vars:179 simple_definition:54 singleton_clauses:0
[SAT presolve] [0.000193593s] clauses:2'084 literals:5'982 vars:438 one_side_vars:179 simple_definition:54 singleton_clauses:0
[SAT presolve] [0.000253857s] clauses:2'084 literals:5'982 vars:438 one_side_vars:179 simple_definition:54 singleton_clauses:0
  1.38e-04s  0.00e+00d  [DetectDuplicateConstraintsWithDifferentEnforcements] 
  5.44e-03s  1.83e-03d  [Probe] #probed=1'246 #new_binary_clauses=475 
  3.92e-04s  2.43e-04d  [MaxClique] 
  8.33e-04s  0.00e+00d  [DetectDominanceRelations] 
  2.99e-03s  0.00e+00d  [PresolveToFixPoint] #num_loops=1 #num_dual_strengthening=1 
  1.07e-03s  0.00e+00d  [ProcessAtMostOneAndLinear] 
  1.11e-04s  0.00e+00d  [DetectDuplicateConstraints] 
  1.02e-04s  0.00e+00d  [DetectDuplicateConstraintsWithDifferentEnforcements] 
  1.89e-03s  6.54e-05d  [DetectDominatedLinearConstraints] #relevant_constraints=820 #num_inclusions=352 
  1.25e-04s  0.00e+00d  [DetectDifferentVariables] 
  7.11e-04s  7.26e-05d  [ProcessSetPPC] #relevant_constraints=2'996 #num_inclusions=90 
  2.79e-04s  3.21e-05d  [TransformClausesToExactlyOne] #num_amos=447 #num_clauses=1'686 #num_checked=1'686 
  5.22e-05s  0.00e+00d  [DetectEncodedComplexDomains] 
  5.53e-05s  1.60e-07d  [FindAlmostIdenticalLinearConstraints] #num_tested_pairs=2 
  7.74e-04s  1.01e-03d  [FindBigAtMostOneAndLinearOverlap] 
  1.20e-03s  8.99e-04d  [FindBigVerticalLinearOverlap] 
  3.91e-04s  6.36e-04d  [FindBigHorizontalLinearOverlap] #linears=451 
  3.24e-04s  2.59e-05d  [MergeClauses] #num_collisions=71 #num_merges=71 #num_saved_literals=184 
  8.47e-04s  0.00e+00d  [DetectDominanceRelations] 
  3.00e-03s  0.00e+00d  [PresolveToFixPoint] #num_loops=1 #num_dual_strengthening=1 
  3.12e-05s  0.00e+00d  [MergeNoOverlap] 
  3.15e-05s  0.00e+00d  [MergeNoOverlap2D] 

Presolve summary:
  - 34 affine relations were detected.
  - rule 'TODO dual: only one blocking constraint?' was applied 757 times.
  - rule 'TODO linear inclusion: superset is equality' was applied 304 times.
  - rule 'affine: new relation' was applied 34 times.
  - rule 'at_most_one: removed literals' was applied 57 times.
  - rule 'at_most_one: size one' was applied 56 times.
  - rule 'at_most_one: transformed into max clique' was applied 2 times.
  - rule 'bool_or: implications' was applied 85 times.
  - rule 'bool_or: only one literal' was applied 12 times.
  - rule 'bool_or: removed enforcement literal' was applied 557 times.
  - rule 'clauses: transformed into exactly one' was applied 2 times.
  - rule 'deductions: 676 stored' was applied 1 time.
  - rule 'duplicate: merged rhs of linear constraint' was applied 17 times.
  - rule 'duplicate: removed constraint' was applied 18 times.
  - rule 'duplicate: removed enforced constraint' was applied 4 times.
  - rule 'enforcement: false literal' was applied 47 times.
  - rule 'enforcement: true literal' was applied 16 times.
  - rule 'exactly_one: removed literals' was applied 27 times.
  - rule 'exactly_one: satisfied' was applied 13 times.
  - rule 'exactly_one: singleton' was applied 2 times.
  - rule 'exactly_one: size two' was applied 25 times.
  - rule 'exactly_one: x and not(x)' was applied 6 times.
  - rule 'incompatible linear: add implication' was applied 111 times.
  - rule 'linear + amo: empty after processing' was applied 5 times.
  - rule 'linear + amo: extracted enforcement literal' was applied 46 times.
  - rule 'linear + amo: trivial linear constraint' was applied 1 time.
  - rule 'linear inclusion: redundant containing constraint' was applied 2 times.
  - rule 'linear inclusion: redundant included constraint' was applied 3 times.
  - rule 'linear inclusion: sparsify superset' was applied 1 time.
  - rule 'linear matrix: common vertical rectangle' was applied 6 times.
  - rule 'linear1: x in domain' was applied 36 times.
  - rule 'linear2: convert ax + by != cte to clauses' was applied 260 times.
  - rule 'linear2: convert implied ax + by == cte to clauses' was applied 114 times.
  - rule 'linear2: implied ax + by = cte has only one solution' was applied 8 times.
  - rule 'linear: always true' was applied 413 times.
  - rule 'linear: coefficient strengthening by increasing it' was applied 2 times.
  - rule 'linear: empty' was applied 1 time.
  - rule 'linear: extracted at most one (max)' was applied 1 time.
  - rule 'linear: fixed or dup variables' was applied 879 times.
  - rule 'linear: negative clause' was applied 1'288 times.
  - rule 'linear: negative reified and' was applied 68 times.
  - rule 'linear: never in domain' was applied 5 times.
  - rule 'linear: positive at most one' was applied 40 times.
  - rule 'linear: positive equal one' was applied 1 time.
  - rule 'linear: reduced variable domains' was applied 7 times.
  - rule 'linear: remapped using affine relations' was applied 22 times.
  - rule 'presolve: 101 unused variables removed.' was applied 1 time.
  - rule 'presolve: iteration' was applied 3 times.
  - rule 'probing: bool_or reduced to implication' was applied 43 times.
  - rule 'probing: simplified clauses' was applied 16 times.
  - rule 'setppc: bool_or in at_most_one' was applied 10 times.
  - rule 'setppc: exactly_one included in linear' was applied 1 time.
  - rule 'setppc: reduced linear coefficients' was applied 1 time.
  - rule 'setppc: removed dominated constraints' was applied 76 times.

Presolved satisfaction model '': (model_fingerprint: 0x1e50a5129f24448d)
#Variables: 471 (404 primary variables)
  - 465 Booleans in [0,1]
  - 5 in [0,2]
  - 1 in [0,5]
#kAtMostOne: 49 (#literals: 198)
#kBoolAnd: 244 (#enforced: 244) (#literals: 642)
#kBoolAndClauses: 71 (#enforced: 71 #multi: 71) (#literals: 326)
#kBoolOr: 1'544 (#literals: 4'676)
#kExactlyOne: 49 (#literals: 196)
#kLinear3: 6 (#enforced: 4)
#kLinearN: 814 (#enforced: 114) (#terms: 5'394)
[Symmetry] Graph for symmetry has 3'955 nodes and 12'673 arcs.
[Symmetry] Symmetry computation done. time: 0.0008414 dtime: 0.00125153

Preloading model.
#Model   0.10s var:471/471 constraints:2777/2777

Starting search at 0.10s with 4 workers.
3 full problem subsolvers: [default_lp, max_lp, no_lp]
1 first solution subsolver: [fj]
2 interleaved subsolvers: [feasibility_pump, rins/rens]
2 helper subsolvers: [neighborhood_helper, synchronization_agent]

#Model 111.23s var:470/471 constraints:2759/2777
#Model 698.67s var:469/471 constraints:2757/2777
#Model 1172.90s var:468/471 constraints:2739/2777
#Model 2086.80s var:467/471 constraints:2739/2777
#Model 3135.74s var:466/471 constraints:2720/2777
#Model 3520.27s var:465/471 constraints:2700/2777
#Model 3572.32s var:464/471 constraints:2679/2777
#Model 3719.59s var:463/471 constraints:2660/2777
#Model 3747.08s var:462/471 constraints:2640/2777
#Model 3752.87s var:461/471 constraints:2622/2777
#Model 3767.35s var:460/471 constraints:2605/2777
#Model 3768.67s var:459/471 constraints:2587/2777
#Model 3769.20s var:457/471 constraints:2563/2777
#Model 3769.75s var:455/471 constraints:2547/2777
#Model 3770.70s var:454/471 constraints:2525/2777
#Model 3772.36s var:452/471 constraints:2495/2777
#Model 3773.64s var:445/471 constraints:2420/2777
#Model 3774.23s var:439/471 constraints:2356/2777
#Done  3774.40s no_lp

Task timing                   n [     min,      max]      avg      dev     time         n [     min,      max]      avg      dev    dtime
        'default_lp':         1 [   1.05h,    1.05h]    1.05h   0.00ns    1.05h         2 [  2.03ms,    1.05h]   31.52m   31.52m    1.05h
  'feasibility_pump':     18709 [863.02us, 164.35ms]   1.61ms   1.23ms   30.16s     18708 [280.21us, 144.08ms] 289.94us   1.05ms    5.42s
                'fj':     13586 [ 58.42ms, 233.57ms] 137.71ms   9.77ms   31.18m     13586 [ 35.27ms, 100.16ms] 100.02ms 555.73us   22.65m
            'max_lp':         1 [   1.05h,    1.05h]    1.05h   0.00ns    1.05h         2 [ 95.94ms,    1.36h]   40.68m   40.68m    1.36h
             'no_lp':         1 [   1.05h,    1.05h]    1.05h   0.00ns    1.05h         2 [  1.66ms,    2.16h]    1.08h    1.08h    2.16h
         'rins/rens':     16413 [736.34us, 245.31ms] 113.99ms  43.67ms   31.18m     16409 [302.50us, 100.42ms]  67.81ms  37.34ms   18.55m

Search stats     Bools   Conflicts    Branches  Restarts  BacktrackToRoot   Backtrack     BoolPropag  IntegerPropag
  'default_lp':    465     318'055  11'400'650     1'672        1'713'580   2'433'998    109'576'167    137'732'856
      'max_lp':    465     191'099  14'874'408       905        2'207'676   2'876'708    141'654'720    186'478'012
       'no_lp':    465  28'540'074  37'452'431    91'531          683'487  28'962'147  2'393'057'784    614'559'522

SAT formula      Fixed  Equiv  Total  VarLeft  BinaryClauses  PermanentClauses  TemporaryClauses
  'default_lp':     10      3    465      452          2'314            38'052             4'718
      'max_lp':     10      3    465      452          2'314            37'495             2'718
       'no_lp':    187      4    465      274          2'660            46'804             2'661

SAT stats        ClassicMinim   LitRemoved  LitRemovedBinary   LitLearned  LitForgotten   Subsumed
  'default_lp':       276'224    3'253'171         1'678'443    8'198'916     4'942'927    126'343
      'max_lp':       164'427    2'187'158           915'081    4'273'909     2'276'436     71'257
       'no_lp':    25'927'984  470'177'973       130'217'303  650'136'648   497'604'475  8'737'684

Vivification       Clauses   Decisions  LitTrue  Subsumed  LitRemoved  DecisionReused  Conflicts
  'default_lp':  1'739'290  10'639'079        3    27'032     287'609         507'684      3'047
      'max_lp':  2'198'986  14'155'124        0    28'636     307'175         583'817      3'017
       'no_lp':    490'404   4'248'955       11    30'996     418'161         119'153      1'706

Clause deletion    at_true  l_and_not(l)  to_binary  sub_conflict  sub_extra  sub_decisions  sub_eager  sub_vivify  sub_probing  sub_inpro  blocked  eliminated   forgotten    promoted   conflicts
    'default_lp':   15'524             0         15       124'142        752          4'471      2'201      27'032       10'663     34'400        0           0     148'646     601'082     318'055
        'max_lp':   13'669             0         10        70'291        423          2'303        966      28'636        9'297     35'307        0           0      81'414     371'650     191'099
         'no_lp':  105'257             2        158     8'581'568     47'670        403'502    156'116      30'996       34'534    244'467        0           0  18'892'979  63'819'782  28'540'074

Lp stats         Component  Iterations  AddedCuts  OPTIMAL  DUAL_F.  DUAL_U.
  'default_lp':          1  48'836'634    105'918  426'772        3  252'690
      'max_lp':          1  21'562'540    121'378   60'829  147'785   54'898

Lp dimension        Final dimension of first component
  'default_lp':    300 rows, 331 columns, 3825 entries
      'max_lp':  1319 rows, 471 columns, 17801 entries

Lp debug         CutPropag  CutEqPropag   Adjust  Overflow        Bad  BadScaling
  'default_lp':          0          178  252'690         0  3'505'870           0
      'max_lp':          0           48   54'897         0  3'663'697           0

Lp pool          Constraints  Updates  Simplif  Merged  Shortened  Split  Strengthened        Cuts/Call
  'default_lp':       10'697   26'554   21'193       0     21'588  1'470             3  105'918/176'769
      'max_lp':       12'460   38'009   14'445       0     14'588  1'696         2'198  121'378/233'120

Lp Cut            default_lp   max_lp
          CG_FF:       1'214      112
           CG_K:         655       13
          CG_KL:         584        8
           CG_R:       1'315       66
          CG_RB:          60        -
         CG_RBP:          13        -
         Clique:           -      222
             IB:          63       29
       MIR_1_FF:         525      939
        MIR_1_K:          98       68
       MIR_1_KL:         382       81
        MIR_1_R:         502      735
       MIR_1_RB:           7        4
      MIR_1_RBP:           6        2
      MIR_1_RLT:           -   11'595
       MIR_2_FF:         638    1'205
        MIR_2_K:         139      316
       MIR_2_KL:         287      215
        MIR_2_R:       1'169    1'380
       MIR_2_RB:         148        3
      MIR_2_RBP:          49        2
       MIR_3_FF:         286      276
        MIR_3_K:          50       62
       MIR_3_KL:          80       28
        MIR_3_R:         582      480
       MIR_3_RB:          81        3
      MIR_3_RBP:          37        7
       MIR_4_FF:         107       89
        MIR_4_K:          23       12
       MIR_4_KL:          25        6
        MIR_4_R:         443      414
       MIR_4_RB:          67        1
      MIR_4_RBP:          28        8
       MIR_5_FF:          58       26
        MIR_5_K:          14        5
       MIR_5_KL:           3        2
        MIR_5_R:         292      384
       MIR_5_RB:          38        5
      MIR_5_RBP:          17       15
       MIR_6_FF:          40        8
        MIR_6_K:          15        3
       MIR_6_KL:           2        -
        MIR_6_R:         253      360
       MIR_6_RB:          42        6
      MIR_6_RBP:          22       13
   ZERO_HALF_FF:         484      534
    ZERO_HALF_K:          65       29
   ZERO_HALF_KL:         115        7
    ZERO_HALF_R:      94'554  101'442
   ZERO_HALF_RB:          22       12
  ZERO_HALF_RBP:         219      146

LNS stats       Improv/Calls  Closed  Difficulty  TimeLimit
  'rins/rens':   16411/16411     50%    8.24e-01       0.10

LS stats                                    Batches  Restarts/Perturbs    LinMoves    GenMoves  CompoundMoves  Bactracks  WeightUpdates  ScoreComputed
                             'fj_restart':      740                200  19'683'583           0              0          0     19'125'971     28'161'113
                    'fj_restart_compound':      925                159           0   9'603'768        423'740  4'589'696         26'665    161'724'933
                'fj_restart_compound_obj':      819                171           0   8'402'045        437'809  3'981'770         21'752    142'942'189
            'fj_restart_compound_perturb':      810                171           0   8'307'360        411'676  3'947'507         23'222    141'397'048
        'fj_restart_compound_perturb_obj':    1'077                162           0  10'991'470        369'897  5'310'463         37'642    188'971'251
                       'fj_restart_decay':      660                168  18'188'367           0              0          0        824'719     12'135'347
              'fj_restart_decay_compound':    1'071                172           0  12'473'857      2'026'356  5'223'341         13'411    188'550'428
          'fj_restart_decay_compound_obj':      754                178           0   8'491'600      1'390'115  3'550'347          9'465    132'455'952
      'fj_restart_decay_compound_perturb':      979                156           0  11'358'075      1'841'543  4'757'869         12'241    172'415'697
  'fj_restart_decay_compound_perturb_obj':      673                169           0   7'569'955      1'240'484  3'164'375          8'520    118'155'272
                   'fj_restart_decay_obj':      635                171  17'487'492           0              0          0        793'508     11'680'662
               'fj_restart_decay_perturb':    1'439                183  39'686'751           0              0          0      1'797'750     26'498'667
           'fj_restart_decay_perturb_obj':    1'207                177  33'294'251           0              0          0      1'507'489     22'244'192
                         'fj_restart_obj':      424                172  11'415'848           0              0          0     10'486'539     15'713'763
                     'fj_restart_perturb':      542                177  14'389'600           0              0          0     13'368'193     21'624'857
                 'fj_restart_perturb_obj':      831                169  21'886'495           0              0          0     21'984'729     32'811'275

Solution repositories    Added  Queried  Synchro
    'alternative_path':      0        0        0
      'best_solutions':      0        0        0
   'fj solution hints':  2'747        0    2'747
        'lp solutions':  1'947   16'413    1'947
                'pump':      0        0

Improving bounds shared    Num  Sym
            'default_lp':    7    0
                 'no_lp':  113    0

Clauses shared    #Exported  #Imported  #BinaryRead  #BinaryTotal
   'default_lp':      5'742     92'216          587         1'091
       'max_lp':      5'034     92'775          587         1'091
        'no_lp':     92'222     10'471        1'091         1'091

LRAT_status: NA
CpSolverResponse summary:
status: INFEASIBLE
objective: NA
best_bound: NA
integers: 345
booleans: 465
conflicts: 28540074
branches: 37452431
propagations: 2393057784
integer_propagations: 614559522
restarts: 91531
lp_iterations: 0
walltime: 3774.43
usertime: 3774.43
deterministic_time: 18916.6
gap_integral: 0

{
  "board_size": 22,
  "parity_proved": 0,
  "target": 34,
  "child_id": 1432,
  "child_count": 2640,
  "partition": "unknown_pair_x_diag_plus_twos_x_diag_minus_twos",
  "build_seconds": 0.0786435604095459,
  "workers": 4,
  "requested_seed": 2026073632,
  "effective_seed": 2026073632,
  "main_diagonal_pair": [
    3,
    13
  ],
  "pair_index": 66,
  "diag_plus_twos": 16,
  "diag_minus_twos": 16,
  "pair_excess": 22,
  "residual_certificate_slack": 90,
  "analytic_minimum_line_defect": 24,
  "analytic_defect_details": {
    "row_costs": {
      "12": 6,
      "13": 3,
      "14": 0,
      "15": 0,
      "16": 0,
      "17": 0
    },
    "column_costs": {
      "12": 6,
      "13": 3,
      "14": 0,
      "15": 0,
      "16": 0,
      "17": 0
    },
    "plus_cost": 24,
    "minus_cost": 0,
    "row_column_minimum": 0
  },
  "maximal_line_constraints": 2455,
  "analytic_infeasible": false,
  "allowed_points": 242,
  "status": "INFEASIBLE",
  "proof_method": "cp_sat_all_lines_with_certificate_profile_cuts",
  "elapsed_seconds": 3774.425276517868,
  "branches": 37452431,
  "conflicts": 28540074
}
